12      4       
10      10      10      10      
0       0       0       0       0       2       2       3       
3       0       0       9       8       3       5       6       11      
10      5       0       0       0       2       4       6       
8       0       0       0       3       3       5       7       11      
5       7       9       0       0       2       8       10      
7       0       2       10      7       2       7       10      
2       5       0       3       5       1       8       
3       0       10      10      0       1       9       
2       0       0       2       0       1       12      
9       0       0       5       0       1       12      
8       10      6       5       3       1       12      
0       0       0       0       0       0       
